p edge 95 1043 78
e 1 7
e 1 8
e 1 11
e 1 15
e 1 17
e 1 23
e 1 25
e 1 32
e 1 34
e 1 47
e 1 50
e 1 54
e 1 55
e 1 58
e 1 60
e 1 64
e 1 66
e 1 78
e 1 84
e 1 90
e 2 8
e 2 10
e 2 13
e 2 17
e 2 24
e 2 27
e 2 33
e 2 37
e 2 39
e 2 40
e 2 45
e 2 49
e 2 54
e 2 64
e 2 65
e 2 70
e 2 78
e 2 80
e 2 82
e 2 89
e 2 91
e 2 94
e 2 95
e 3 8
e 3 16
e 3 18
e 3 20
e 3 27
e 3 34
e 3 35
e 3 36
e 3 39
e 3 43
e 3 44
e 3 49
e 3 55
e 3 59
e 3 64
e 3 66
e 3 76
e 3 77
e 3 81
e 3 83
e 3 88
e 3 90
e 3 91
e 4 9
e 4 16
e 4 23
e 4 24
e 4 29
e 4 31
e 4 33
e 4 34
e 4 39
e 4 47
e 4 51
e 4 52
e 4 53
e 4 61
e 4 62
e 4 63
e 4 64
e 4 65
e 4 77
e 4 80
e 4 86
e 4 90
e 5 9
e 5 10
e 5 12
e 5 13
e 5 22
e 5 28
e 5 34
e 5 39
e 5 41
e 5 43
e 5 50
e 5 57
e 5 58
e 5 60
e 5 66
e 5 74
e 5 75
e 5 84
e 5 89
e 5 90
e 6 13
e 6 14
e 6 21
e 6 23
e 6 25
e 6 31
e 6 33
e 6 36
e 6 39
e 6 40
e 6 41
e 6 49
e 6 52
e 6 54
e 6 58
e 6 61
e 6 64
e 6 69
e 6 70
e 6 71
e 6 75
e 6 80
e 6 93
e 6 94
e 6 95
e 7 10
e 7 12
e 7 15
e 7 17
e 7 28
e 7 31
e 7 48
e 7 50
e 7 57
e 7 58
e 7 61
e 7 67
e 7 80
e 7 87
e 7 90
e 7 92
e 7 95
e 8 9
e 8 18
e 8 21
e 8 24
e 8 26
e 8 28
e 8 32
e 8 41
e 8 42
e 8 43
e 8 48
e 8 52
e 8 57
e 8 59
e 8 67
e 8 68
e 8 69
e 8 79
e 8 80
e 8 82
e 8 95
e 9 14
e 9 20
e 9 21
e 9 23
e 9 30
e 9 35
e 9 44
e 9 46
e 9 47
e 9 64
e 9 74
e 9 78
e 10 11
e 10 15
e 10 16
e 10 29
e 10 32
e 10 57
e 10 58
e 10 59
e 10 66
e 10 86
e 11 13
e 11 14
e 11 15
e 11 27
e 11 32
e 11 33
e 11 43
e 11 44
e 11 48
e 11 61
e 11 63
e 11 64
e 11 68
e 11 69
e 11 71
e 11 72
e 11 78
e 11 81
e 11 83
e 11 85
e 11 88
e 11 90
e 12 21
e 12 27
e 12 28
e 12 35
e 12 39
e 12 40
e 12 51
e 12 52
e 12 55
e 12 56
e 12 60
e 12 64
e 12 67
e 12 76
e 12 79
e 12 83
e 12 84
e 12 89
e 12 91
e 12 93
e 13 26
e 13 27
e 13 31
e 13 33
e 13 37
e 13 38
e 13 40
e 13 42
e 13 44
e 13 49
e 13 57
e 13 61
e 13 94
e 14 15
e 14 18
e 14 30
e 14 31
e 14 42
e 14 50
e 14 57
e 14 58
e 14 71
e 14 74
e 14 80
e 14 81
e 14 88
e 14 90
e 15 19
e 15 26
e 15 30
e 15 32
e 15 33
e 15 38
e 15 43
e 15 46
e 15 48
e 15 50
e 15 61
e 15 63
e 15 71
e 15 73
e 15 81
e 15 84
e 15 85
e 15 86
e 15 93
e 15 94
e 16 23
e 16 40
e 16 47
e 16 51
e 16 57
e 16 59
e 16 60
e 16 72
e 16 74
e 16 75
e 16 77
e 16 83
e 16 84
e 16 85
e 16 87
e 16 90
e 17 20
e 17 28
e 17 30
e 17 33
e 17 35
e 17 38
e 17 39
e 17 40
e 17 41
e 17 46
e 17 52
e 17 56
e 17 59
e 17 64
e 17 66
e 17 68
e 17 70
e 17 72
e 17 77
e 17 82
e 17 85
e 17 87
e 18 19
e 18 27
e 18 32
e 18 35
e 18 40
e 18 42
e 18 47
e 18 55
e 18 62
e 18 63
e 18 72
e 18 73
e 18 82
e 18 86
e 18 92
e 19 21
e 19 22
e 19 24
e 19 26
e 19 37
e 19 41
e 19 46
e 19 49
e 19 51
e 19 52
e 19 86
e 19 91
e 19 92
e 19 94
e 19 95
e 20 22
e 20 24
e 20 25
e 20 27
e 20 39
e 20 47
e 20 52
e 20 55
e 20 59
e 20 62
e 20 66
e 20 82
e 20 83
e 20 84
e 20 93
e 21 29
e 21 30
e 21 34
e 21 41
e 21 44
e 21 47
e 21 61
e 21 66
e 21 72
e 21 74
e 21 82
e 21 84
e 21 85
e 21 87
e 21 88
e 21 93
e 22 28
e 22 36
e 22 42
e 22 45
e 22 47
e 22 48
e 22 50
e 22 54
e 22 58
e 22 72
e 22 75
e 22 82
e 22 83
e 22 88
e 22 91
e 23 24
e 23 25
e 23 26
e 23 30
e 23 33
e 23 34
e 23 36
e 23 38
e 23 40
e 23 41
e 23 46
e 23 52
e 23 53
e 23 57
e 23 59
e 23 66
e 23 69
e 23 75
e 23 79
e 23 80
e 23 89
e 24 27
e 24 28
e 24 29
e 24 30
e 24 34
e 24 39
e 24 42
e 24 44
e 24 50
e 24 55
e 24 67
e 24 69
e 24 74
e 24 77
e 24 78
e 24 80
e 24 82
e 24 91
e 24 93
e 24 94
e 25 29
e 25 30
e 25 35
e 25 46
e 25 53
e 25 58
e 25 63
e 25 67
e 25 72
e 25 78
e 25 81
e 25 84
e 25 86
e 25 90
e 26 33
e 26 34
e 26 38
e 26 43
e 26 44
e 26 49
e 26 54
e 26 57
e 26 60
e 26 68
e 26 69
e 26 73
e 26 74
e 26 77
e 26 78
e 26 80
e 26 82
e 26 86
e 27 30
e 27 32
e 27 34
e 27 41
e 27 47
e 27 49
e 27 59
e 27 61
e 27 62
e 27 66
e 27 68
e 27 70
e 27 73
e 27 81
e 27 84
e 27 88
e 28 30
e 28 36
e 28 38
e 28 40
e 28 41
e 28 42
e 28 44
e 28 45
e 28 47
e 28 49
e 28 61
e 28 65
e 28 71
e 28 85
e 28 89
e 28 93
e 28 95
e 29 31
e 29 32
e 29 34
e 29 54
e 29 55
e 29 57
e 29 67
e 29 72
e 29 76
e 29 82
e 29 86
e 29 92
e 29 93
e 29 95
e 30 31
e 30 35
e 30 36
e 30 38
e 30 47
e 30 59
e 30 63
e 30 74
e 30 79
e 30 80
e 30 84
e 30 85
e 30 91
e 30 94
e 31 32
e 31 44
e 31 45
e 31 50
e 31 57
e 31 61
e 31 64
e 31 68
e 31 74
e 31 75
e 31 80
e 31 92
e 32 33
e 32 34
e 32 39
e 32 40
e 32 44
e 32 45
e 32 48
e 32 52
e 32 54
e 32 56
e 32 64
e 32 72
e 32 81
e 32 84
e 32 88
e 32 92
e 32 95
e 33 36
e 33 39
e 33 47
e 33 50
e 33 53
e 33 57
e 33 58
e 33 70
e 33 73
e 33 74
e 33 76
e 33 88
e 33 90
e 34 35
e 34 41
e 34 43
e 34 44
e 34 45
e 34 52
e 34 56
e 34 58
e 34 61
e 34 67
e 34 70
e 34 79
e 34 84
e 34 85
e 34 91
e 34 93
e 35 36
e 35 38
e 35 40
e 35 43
e 35 49
e 35 50
e 35 59
e 35 62
e 35 67
e 35 69
e 35 72
e 35 78
e 35 92
e 36 38
e 36 43
e 36 44
e 36 45
e 36 52
e 36 56
e 36 57
e 36 68
e 36 73
e 36 78
e 36 79
e 36 85
e 36 86
e 36 90
e 36 95
e 37 38
e 37 39
e 37 40
e 37 41
e 37 42
e 37 44
e 37 48
e 37 54
e 37 66
e 37 68
e 37 71
e 37 77
e 37 82
e 37 84
e 37 89
e 37 94
e 38 43
e 38 45
e 38 46
e 38 47
e 38 50
e 38 52
e 38 53
e 38 61
e 38 64
e 38 65
e 38 69
e 38 76
e 38 77
e 38 78
e 38 85
e 38 87
e 38 88
e 38 91
e 39 40
e 39 43
e 39 44
e 39 48
e 39 62
e 39 66
e 39 68
e 39 78
e 39 81
e 39 83
e 39 89
e 40 41
e 40 42
e 40 43
e 40 45
e 40 46
e 40 47
e 40 52
e 40 54
e 40 57
e 40 60
e 40 61
e 40 67
e 40 72
e 40 74
e 40 77
e 40 90
e 41 48
e 41 58
e 41 60
e 41 66
e 41 67
e 41 71
e 41 75
e 41 77
e 41 78
e 41 79
e 41 84
e 41 85
e 41 88
e 41 89
e 41 90
e 41 93
e 41 94
e 42 45
e 42 46
e 42 47
e 42 48
e 42 51
e 42 53
e 42 58
e 42 59
e 42 60
e 42 62
e 42 66
e 42 68
e 42 72
e 42 76
e 42 77
e 42 82
e 42 89
e 42 91
e 42 94
e 43 48
e 43 49
e 43 57
e 43 58
e 43 61
e 43 67
e 43 72
e 43 77
e 43 82
e 43 88
e 44 55
e 44 57
e 44 63
e 44 70
e 44 73
e 44 74
e 44 77
e 44 83
e 44 85
e 44 86
e 44 87
e 45 46
e 45 49
e 45 50
e 45 54
e 45 55
e 45 56
e 45 59
e 45 63
e 45 64
e 45 73
e 45 75
e 45 80
e 46 49
e 46 54
e 46 57
e 46 61
e 46 63
e 46 65
e 46 67
e 46 68
e 46 73
e 46 75
e 46 76
e 46 79
e 46 80
e 46 83
e 46 85
e 46 92
e 47 51
e 47 56
e 47 57
e 47 67
e 47 69
e 47 70
e 47 73
e 47 77
e 47 80
e 47 85
e 47 94
e 48 50
e 48 54
e 48 55
e 48 61
e 48 73
e 48 81
e 48 86
e 48 88
e 49 54
e 49 59
e 49 67
e 49 69
e 49 78
e 49 81
e 49 82
e 49 83
e 49 86
e 49 91
e 49 93
e 50 52
e 50 60
e 50 70
e 50 79
e 50 86
e 50 88
e 50 90
e 50 91
e 51 52
e 51 59
e 51 60
e 51 65
e 51 66
e 51 67
e 51 74
e 51 88
e 51 90
e 51 93
e 51 94
e 52 53
e 52 63
e 52 66
e 52 72
e 52 77
e 52 79
e 52 93
e 53 55
e 53 56
e 53 57
e 53 58
e 53 65
e 53 67
e 53 70
e 53 74
e 53 76
e 53 80
e 53 82
e 53 83
e 53 85
e 53 86
e 53 90
e 53 94
e 54 56
e 54 59
e 54 61
e 54 63
e 54 66
e 54 77
e 54 78
e 54 87
e 54 93
e 55 56
e 55 61
e 55 64
e 55 70
e 55 72
e 55 74
e 55 79
e 55 80
e 55 83
e 55 87
e 55 92
e 56 59
e 56 66
e 56 68
e 56 74
e 56 80
e 56 81
e 56 82
e 56 86
e 56 91
e 56 92
e 57 59
e 57 60
e 57 63
e 57 67
e 57 68
e 57 69
e 57 72
e 57 74
e 57 82
e 57 83
e 57 86
e 57 89
e 57 94
e 58 60
e 58 64
e 58 66
e 58 72
e 58 73
e 58 80
e 58 83
e 58 92
e 59 67
e 59 68
e 59 72
e 59 74
e 59 75
e 59 76
e 59 78
e 59 79
e 59 89
e 59 90
e 59 92
e 59 94
e 60 63
e 60 64
e 60 74
e 60 83
e 60 89
e 60 91
e 61 63
e 61 64
e 61 69
e 61 72
e 61 80
e 61 83
e 61 94
e 62 71
e 62 82
e 62 87
e 62 92
e 63 65
e 63 66
e 63 73
e 63 75
e 63 79
e 63 81
e 63 83
e 63 85
e 63 86
e 64 67
e 64 74
e 64 76
e 64 87
e 64 88
e 64 95
e 65 66
e 65 73
e 65 77
e 65 85
e 65 86
e 65 88
e 65 89
e 65 92
e 66 69
e 66 72
e 66 82
e 66 90
e 67 72
e 67 73
e 67 75
e 67 78
e 67 79
e 67 82
e 68 74
e 68 79
e 68 80
e 68 82
e 68 83
e 68 92
e 69 78
e 69 84
e 69 88
e 69 90
e 69 94
e 70 73
e 70 74
e 70 75
e 70 80
e 70 86
e 70 87
e 70 92
e 71 80
e 71 81
e 71 85
e 71 86
e 71 94
e 71 95
e 72 75
e 72 86
e 72 87
e 72 95
e 73 75
e 73 81
e 73 83
e 73 93
e 74 80
e 74 82
e 74 90
e 74 94
e 75 77
e 75 81
e 75 87
e 76 78
e 76 81
e 76 83
e 76 90
e 76 92
e 76 93
e 76 94
e 77 87
e 77 88
e 77 90
e 77 91
e 77 94
e 77 95
e 78 80
e 78 81
e 78 84
e 78 86
e 78 87
e 78 88
e 78 90
e 78 91
e 79 80
e 79 93
e 79 94
e 79 95
e 80 84
e 80 86
e 80 88
e 81 86
e 81 91
e 82 87
e 82 90
e 82 92
e 82 93
e 82 94
e 83 86
e 83 87
e 83 88
e 83 94
e 84 87
e 84 90
e 84 94
e 85 86
e 85 88
e 85 90
e 85 95
e 86 87
e 87 92
e 87 94
e 88 90
e 89 90
e 89 92
e 90 91
e 90 94
e 91 94
e 91 95
e 94 95
